NAME          ClpDefau  FREE
ROWS
 N  OBJROW
 L  ZMUNI1_PCT
 L  ZMUNI2_PCT
 L  ZMUNI3_PCT
 L  ZMUNI4_PCT
 L  ZMUNI5_PCT
 L  ZMUNI6_PCT
 L  ZMUNI7_PCT
 L  ZMUNI8_PCT
 L  ZMUNI9_PCT
COLUMNS
    QMUNI1 OBJROW 1.          
    QMUNI1 ZMUNI1_PCT 29368.782   
    QMUNI1 ZMUNI2_PCT 2156.0669   
    QMUNI1 ZMUNI3_PCT 4685.2112   
    QMUNI1 ZMUNI4_PCT 3481.1973   
    QMUNI1 ZMUNI5_PCT 904.274     
    QMUNI1 ZMUNI6_PCT 1070.4041   
    QMUNI1 ZMUNI7_PCT 2471.5424   
    QMUNI1 ZMUNI8_PCT 2002.5253   
    QMUNI1 ZMUNI9_PCT 1063.9191   
    QMUNI2 OBJROW 1.          
    QMUNI2 ZMUNI1_PCT 1917.4576   
    QMUNI2 ZMUNI2_PCT 34393.692   
    QMUNI2 ZMUNI3_PCT 2706.1462   
    QMUNI2 ZMUNI4_PCT 2819.252    
    QMUNI2 ZMUNI5_PCT 558.8532    
    QMUNI2 ZMUNI6_PCT 590.5152    
    QMUNI2 ZMUNI7_PCT 1363.945    
    QMUNI2 ZMUNI8_PCT 1569.1757   
    QMUNI2 ZMUNI9_PCT 1462.3642   
    QMUNI3 OBJROW 1.          
    QMUNI3 ZMUNI1_PCT 4289.2456   
    QMUNI3 ZMUNI2_PCT 2730.7511   
    QMUNI3 ZMUNI3_PCT 30460.7391  
    QMUNI3 ZMUNI4_PCT 5151.2718   
    QMUNI3 ZMUNI5_PCT 670.8146    
    QMUNI3 ZMUNI6_PCT 773.0484    
    QMUNI3 ZMUNI7_PCT 1872.0627   
    QMUNI3 ZMUNI8_PCT 1692.009    
    QMUNI3 ZMUNI9_PCT 979.9958    
    QMUNI4 OBJROW 1.          
    QMUNI4 ZMUNI1_PCT 3294.3725   
    QMUNI4 ZMUNI2_PCT 2947.6166   
    QMUNI4 ZMUNI3_PCT 5457.6874   
    QMUNI4 ZMUNI4_PCT 106979.6562 
    QMUNI4 ZMUNI5_PCT 143.2419    
    QMUNI4 ZMUNI6_PCT 234.4132    
    QMUNI4 ZMUNI7_PCT 1147.0795   
    QMUNI4 ZMUNI8_PCT 1070.4041   
    QMUNI4 ZMUNI9_PCT 417.1372    
    QMUNI5 OBJROW 1.          
    QMUNI5 ZMUNI1_PCT 580.9784    
    QMUNI5 ZMUNI2_PCT 437.9273    
    QMUNI5 ZMUNI3_PCT 520.7062    
    QMUNI5 ZMUNI4_PCT 423.1453    
    QMUNI5 ZMUNI5_PCT 35745.2393  
    QMUNI5 ZMUNI6_PCT 3377.1515   
    QMUNI5 ZMUNI7_PCT 960.7315    
    QMUNI5 ZMUNI8_PCT 800.3235    
    QMUNI5 ZMUNI9_PCT 744.4382    
    QMUNI6 OBJROW 1.          
    QMUNI6 ZMUNI1_PCT 435.4477    
    QMUNI6 ZMUNI2_PCT 168.9911    
    QMUNI6 ZMUNI3_PCT 328.0639    
    QMUNI6 ZMUNI4_PCT 241.9471    
    QMUNI6 ZMUNI5_PCT 3106.8802   
    QMUNI6 ZMUNI6_PCT 32811.7371  
    QMUNI6 ZMUNI7_PCT 635.5286    
    QMUNI6 ZMUNI8_PCT 297.5464    
    QMUNI6 ZMUNI9_PCT 46.3486     
    QMUNI7 OBJROW 1.          
    QMUNI7 ZMUNI1_PCT 1408.3862   
    QMUNI7 ZMUNI2_PCT 757.7896    
    QMUNI7 ZMUNI3_PCT 1208.8775   
    QMUNI7 ZMUNI4_PCT 889.3966    
    QMUNI7 ZMUNI5_PCT 470.3522    
    QMUNI7 ZMUNI6_PCT 660.1334    
    QMUNI7 ZMUNI7_PCT 30612.1826  
    QMUNI7 ZMUNI8_PCT 2370.8344   
    QMUNI7 ZMUNI9_PCT 659.1797    
    QMUNI8 OBJROW 1.          
    QMUNI8 ZMUNI1_PCT 1333.8089   
    QMUNI8 ZMUNI2_PCT 1118.2785   
    QMUNI8 ZMUNI3_PCT 1344.49     
    QMUNI8 ZMUNI4_PCT 1065.0634   
    QMUNI8 ZMUNI5_PCT 534.2484    
    QMUNI8 ZMUNI6_PCT 626.7548    
    QMUNI8 ZMUNI7_PCT 2698.3261   
    QMUNI8 ZMUNI8_PCT 28740.5014  
    QMUNI8 ZMUNI9_PCT 1424.7895   
    QMUNI9 OBJROW 1.          
    QMUNI9 ZMUNI1_PCT 622.7493    
    QMUNI9 ZMUNI2_PCT 926.0178    
    QMUNI9 ZMUNI3_PCT 704.956     
    QMUNI9 ZMUNI4_PCT 599.7657    
    QMUNI9 ZMUNI5_PCT 577.7359    
    QMUNI9 ZMUNI6_PCT 548.172     
    QMUNI9 ZMUNI7_PCT 952.9114    
    QMUNI9 ZMUNI8_PCT 1424.9802   
    QMUNI9 ZMUNI9_PCT 27352.7146  
RHS
    RHS ZMUNI1_PCT 0.4403476246
    RHS ZMUNI2_PCT 0.0191765031
    RHS ZMUNI3_PCT 0.0370236171
    RHS ZMUNI4_PCT 0.6833311627
    RHS ZMUNI5_PCT  -0.241496  
    RHS ZMUNI6_PCT -0.088911168
    RHS ZMUNI7_PCT -0.064669555
    RHS ZMUNI8_PCT  -0.26098259
    RHS ZMUNI9_PCT  -0.34929396
BOUNDS
 LO BOUND QMUNI1 -0.000840998
 UP BOUND QMUNI1      1.1e+10
 LO BOUND QMUNI2 -0.000590926
 UP BOUND QMUNI2      1.1e+10
 LO BOUND QMUNI3 -0.000650062
 UP BOUND QMUNI3      1.1e+10
 LO BOUND QMUNI4 -0.000241148
 UP BOUND QMUNI4      1.1e+10
 LO BOUND QMUNI5 -0.000444564
 UP BOUND QMUNI5      1.1e+10
 LO BOUND QMUNI6 -0.000608829
 UP BOUND QMUNI6      1.1e+10
 LO BOUND QMUNI7 -0.000269559
 UP BOUND QMUNI7      1.1e+10
 LO BOUND QMUNI8 -0.000383618
 UP BOUND QMUNI8      1.1e+10
 LO BOUND QMUNI9 -0.000409402
 UP BOUND QMUNI9      1.1e+10
ENDATA
